Version identifier: 20.1.0.0 | 2020-11-10 | 9bedb6d68
Tried aggregator 2 times.
MIP Presolve eliminated 913 rows and 451 columns.
MIP Presolve modified 2424 coefficients.
Aggregator did 125 substitutions.
Reduced MIP has 1371 rows, 1089 columns, and 4505 nonzeros.
Reduced MIP has 219 binaries, 870 generals, 0 SOSs, and 0 indicators.
Presolve time = 0.01 sec. (5.52 ticks)
Found incumbent of value 2401.000000 after 0.03 sec. (11.18 ticks)
Probing fixed 30 vars, tightened 339 bounds.
Probing time = 0.00 sec. (0.99 ticks)
Tried aggregator 2 times.
Detecting symmetries...
MIP Presolve eliminated 579 rows and 50 columns.
MIP Presolve modified 135 coefficients.
Aggregator did 18 substitutions.
Reduced MIP has 774 rows, 1021 columns, and 2534 nonzeros.
Reduced MIP has 285 binaries, 736 generals, 0 SOSs, and 0 indicators.
Presolve time = 0.01 sec. (3.60 ticks)
Probing time = 0.00 sec. (0.22 ticks)
Clique table members: 5.
MIP emphasis: balance optimality and feasibility.
MIP search method: dynamic search.
Parallel mode: deterministic, using up to 24 threads.
Root relaxation solution time = 0.01 sec. (2.66 ticks)

        Nodes                                         Cuts/
   Node  Left     Objective  IInf  Best Integer    Best Bound    ItCnt     Gap

*     0+    0                         2401.0000        0.0000           100.00%
      0     0        0.0000    60     2401.0000        0.0000      294  100.00%
      0     0        0.0000    93     2401.0000      Cuts: 93      375  100.00%
*     0+    0                           33.0000        0.0000           100.00%
      0     0        0.0000   109       33.0000      Cuts: 70      444  100.00%
*     0+    0                           29.0000        0.0000           100.00%
*     0+    0                           16.0000        0.0000           100.00%
      0     0        cutoff             16.0000       16.0000      444    0.00%
Elapsed time = 0.59 sec. (90.49 ticks, tree = 0.01 MB, solutions = 4)

Implied bound cuts applied:  29
Mixed integer rounding cuts applied:  10
Zero-half cuts applied:  27
Lift and project cuts applied:  10
Gomory fractional cuts applied:  19

Root node processing (before b&c):
  Real time             =    0.59 sec. (90.59 ticks)
Parallel b&c, 24 threads:
  Real time             =    0.00 sec. (0.00 ticks)
  Sync time (average)   =    0.00 sec.
  Wait time (average)   =    0.00 sec.
                          ------------
Total (root+branch&cut) =    0.59 sec. (90.59 ticks)

Solution status = Optimal
Solution LB = 16
Solution UB = 16
Runtime = 0.603743 seconds
	Command being timed: "/home/min/git_repos/CS598MEBProject/CNT-ILP/build/cnt -s 2 ./output/k8_n15/simC_c1_k8_n15_u2_s3_del04.input-right.cnp"
	User time (seconds): 8.64
	System time (seconds): 0.11
	Percent of CPU this job got: 1407%
	Elapsed (wall clock) time (h:mm:ss or m:ss): 0:00.62
	Average shared text size (kbytes): 0
	Average unshared data size (kbytes): 0
	Average stack size (kbytes): 0
	Average total size (kbytes): 0
	Maximum resident set size (kbytes): 90796
	Average resident set size (kbytes): 0
	Major (requiring I/O) page faults: 0
	Minor (reclaiming a frame) page faults: 19762
	Voluntary context switches: 5004
	Involuntary context switches: 1163
	Swaps: 0
	File system inputs: 0
	File system outputs: 16
	Socket messages sent: 0
	Socket messages received: 0
	Signals delivered: 0
	Page size (bytes): 4096
	Exit status: 0
